(set-logic QF_UF)

(declare-const a Bool)
(declare-const b Bool)
(declare-const c Bool)
(declare-const d Bool)
(declare-const h Bool)
(declare-const f Bool)
(declare-const g Bool)
(declare-const w Bool)
(declare-const y Bool)
(declare-const z Bool)
(assert z)
(assert (not a))
(assert (or h (not b) (not d) (not f)))
(assert (or d (not f) g))
(assert (or a (not b) (not c) g))
(assert (or y (not h)))
(assert (or (not b) (not h) (not y)))
(assert (or b c (not a) (not h)))
(assert (or f (not c) (not h)))
(assert (or (not f) (not h)))
(assert (or y (not g)))
(assert (or (not c) (not z)))
(assert (or b c (not z)))
(assert (or a c f))
(assert (or (not b) (not c) (not g)))
(assert (or c w))
(assert (or (not w) (not g)))
(check-sat)